(set-logic ALL)
(declare-fun i1 () Int)
(declare-fun it1907 () Int)
(declare-fun it1908 () Int)
(declare-fun i2 () Int)
(declare-fun i3 () Int)
(declare-fun it1909 () Int)
(declare-fun i4 () Int)
(declare-fun it1910 () Int)
(declare-fun it1911 () Int)
(declare-fun i5 () Int)
(declare-fun it1912 () Int)
(declare-fun i6 () Int)
(declare-fun i7 () Int)
(declare-fun it1913 () Int)
(declare-fun it1921 () Int)
(declare-fun it1922 () Int)
(declare-fun it1923 () Int)
(declare-fun it1924 () Int)
(declare-fun it1925 () Int)
(declare-fun it1926 () Int)
(declare-fun it1927 () Int)
(declare-fun it1928 () Int)
(declare-fun it1929 () Int)
(declare-fun it1930 () Int)
(declare-fun it1931 () Int)
(declare-fun it1932 () Int)
(declare-fun it1933 () Int)
(declare-fun it1934 () Int)
(declare-fun it1935 () Int)
(declare-fun it1936 () Int)
(declare-fun it1937 () Int)
(declare-fun it1938 () Int)
(declare-fun it1939 () Int)
(declare-fun it1940 () Int)
(declare-fun it1941 () Int)
(declare-fun it1945 () Int)
(declare-fun it1946 () Int)
(declare-fun it1947 () Int)
(declare-fun it1948 () Int)
(declare-fun it1949 () Int)
(declare-fun it1950 () Int)
(declare-fun it1951 () Int)
(declare-fun it1952 () Int)
(declare-fun it1953 () Int)
(declare-fun it1954 () Int)
(declare-fun it1955 () Int)
(declare-fun it1956 () Int)
(declare-fun it1957 () Int)
(declare-fun it1958 () Int)
(declare-fun it2002 () Int)
(declare-fun it2003 () Int)
(declare-fun it2004 () Int)
(declare-fun it2005 () Int)
(declare-fun it2006 () Int)
(declare-fun it2007 () Int)
(declare-fun it2008 () Int)
(declare-fun it2013 () Int)
(declare-fun it2014 () Int)
(declare-fun it2015 () Int)
(declare-fun it2016 () Int)
(declare-fun it2017 () Int)
(declare-fun it2018 () Int)
(declare-fun it2019 () Int)
(declare-fun it2020 () Int)
(declare-fun it2021 () Int)
(declare-fun it2022 () Int)
(declare-fun it2023 () Int)
(declare-fun it2024 () Int)
(declare-fun it2025 () Int)
(declare-fun it2026 () Int)
(declare-fun it1089 () Int)
(assert (= (+ i1 (- 1)) 0))
(assert (= (+ it1907 (- 5)) 0))
(assert (= (+ (* i2 (- 1)) it1908 (- 4)) 0))
(assert (= (+ it1909 (* i3 (- 1))) 0))
(assert (= (+ it1910 (* i4 (- 1))) 0))
(assert (= (+ (* i5 (- 1)) it1911) 0))
(assert (= (+ (* i6 (- 1)) it1912) 0))
(assert (= (+ it1913 (* i7 (- 1))) 0))
(assert (and (> (+ it1910 (- 2)) 0) (= (+ it1907 (- 5)) 0)))
(assert (= (+ it1921 (- 18)) 0))
(assert (= (+ it1922 (* it1908 (- 1)) (- 12)) 0))
(assert (= (+ (* it1909 (- 1)) it1923) 0))
(assert (= (+ (* it1910 (- 1)) it1924) 0))
(assert (= (+ it1925 (* it1911 (- 1))) 0))
(assert (= it1926 0))
(assert (= (+ (* it1913 (- 1)) it1927) 0))
(assert (let ((a!1 (>= (+ (+ (* it1926 (- 1)) it1924) (- 2)) 0))
      (a!2 (>= (+ (+ (* it1926 (- 1)) it1924) (- 3)) 0))
      (a!3 (> (+ (+ (* it1926 (- 1)) it1924) (- 3)) 0))
      (a!4 (>= (+ (+ (* it1926 (- 1)) it1924) (- 4)) 0)))
  (and (> 1 0)
       (>= (+ (* it1921 (- 1)) 18) 0)
       a!1
       (> (+ it1926 it1924 3) 0)
       (>= (+ it1921 (- 18)) 0)
       a!2
       a!3
       a!4)))
(assert (= (+ (* it1921 (- 1)) it1928) 0))
(assert (= (+ (* it1922 (- 1)) it1929 (* it1926 11) (* it1924 (- 11)) 33) 0))
(assert (= (+ it1930 (* it1924 (- 1)) 3) 0))
(assert (= (+ (* it1924 (- 1)) it1931) 0))
(assert (= (+ it1932 (* it1924 (- 1))) 0))
(assert (= (+ it1933 (* it1924 (- 1)) 3) 0))
(assert (= (+ it1934 (- 1)) 0))
(assert (and (<= (+ it1933 (* it1931 (- 1)) 2) 0) (= (+ it1928 (- 18)) 0)))
(assert (= (+ it1935 (- 20)) 0))
(assert (= (+ (* it1929 (- 1)) it1936 (- 2)) 0))
(assert (= (+ (* it1930 (- 1)) it1937) 0))
(assert (= (+ it1938 (* it1931 (- 1))) 0))
(assert (= it1939 0))
(assert (= (+ (* it1933 (- 1)) it1940) 0))
(assert (= (+ it1941 (* it1934 (- 1))) 0))
(assert (and (<= (+ (* it1938 (- 1)) (* it1939 2) it1940 3) 0) (= (+ it1935 (- 20)) 0)))
(assert (= (+ it1945 (- 21)) 0))
(assert (= (+ (* it1936 (- 1)) it1946 (- 1)) 0))
(assert (= (+ (* it1937 (- 1)) it1947) 0))
(assert (= (+ (* it1938 (- 1)) it1948) 0))
(assert (= (+ (* it1939 (- 1)) it1949) 0))
(assert (= (+ (* it1940 (- 1)) it1950) 0))
(assert (= (+ (* it1941 (- 1)) it1951) 0))
(assert (and (= (+ it1945 (- 21)) 0) (= (+ (* it1948 (- 1)) (* it1949 2) it1950 3) 0)))
(assert (= (+ it1952 (- 26)) 0))
(assert (= (+ (* it1946 (- 1)) it1953 (- 2)) 0))
(assert (= (+ it1954 (* it1947 (- 1))) 0))
(assert (= (+ (* it1948 (- 1)) it1955) 0))
(assert (= (+ (* it1949 (- 1)) it1956) 0))
(assert (= (+ it1957 (* it1950 (- 1))) 0))
(assert (= (+ it1958 (* it1949 (- 2)) (- 1)) 0))
(assert (= (+ it1952 (- 26)) 0))
(assert (= (+ it2002 (- 20)) 0))
(assert (= (+ it2003 (* it1953 (- 1)) (- 2)) 0))
(assert (= (+ it2004 (* it1954 (- 1))) 0))
(assert (= (+ it2005 (* it1955 (- 1))) 0))
(assert (= (+ (* it1958 (- 1)) it2006) 0))
(assert (= (+ (* it1957 (- 1)) it2007) 0))
(assert (= (+ it2008 (* it1958 (- 1))) 0))
(assert (and (= (+ it2002 (- 20)) 0) (> (+ (* it2005 (- 1)) (* it2006 2) it2007 3) 0)))
(assert (= (+ it2013 (- 18)) 0))
(assert (= (+ it2014 (* it2003 (- 1)) (- 4)) 0))
(assert (= (+ it2015 (* it2007 (- 1)) (- 1)) 0))
(assert (= (+ (* it2005 (- 1)) it2016) 0))
(assert (= (+ it2017 (* it2006 (- 1))) 0))
(assert (= (+ it2018 (* it2007 (- 1)) (- 1)) 0))
(assert (= (+ (* it2008 (- 1)) it2019) 0))
(assert (and (= (+ it2013 (- 18)) 0) (<= (+ it2018 (* it2016 (- 1)) 2) 0)))
(assert (= (+ it2020 (- 20)) 0))
(assert (= (+ (* it2014 (- 1)) it2021 (- 2)) 0))
(assert (= (+ (* it2015 (- 1)) it2022) 0))
(assert (= (+ it2023 (* it2016 (- 1))) 0))
(assert (= it2024 0))
(assert (= (+ (* it2018 (- 1)) it2025) 0))
(assert (= (+ (* it2019 (- 1)) it2026) 0))
(assert (let ((a!1 (+ (+ 0 it2023)
              (* (+ 0 it2024) (exp 2 (+ it1089 (- 1))) (+ 0 (- 2)))
              (+ 0 (* it2025 (- 1)))
              (* (exp 2 (+ it1089 (- 1))) (+ 0 (- 2)))
              (+ 0 (- 1)))))
  (and (>= a!1 (+ 0 0))
       (>= (+ it2023 (* it2024 (- 2)) (* it2025 (- 1)) (- 3)) 0)
       (> a!1 (+ 0 0))
       (>= (+ it1089 (- 1)) 0)
       (>= (+ it2020 (- 20)) 0)
       (>= (+ (* it2020 (- 1)) 20) 0)
       (> (+ it2023 (* it2024 (- 2)) (* it2025 (- 1)) (- 3)) 0))))
(check-sat)
